0 0 0
0 1 43
0 2 76
0 3 18
0 4 95
0 5 13
0 6 59
0 7 7
0 8 95
0 9 89
1 1 0
1 2 22
1 3 93
1 4 62
1 5 31
1 6 2
1 7 98
1 8 25
1 9 10
2 2 0
2 3 64
2 4 21
2 5 28
2 6 76
2 7 54
2 8 51
2 9 90
3 3 0
3 4 43
3 5 3
3 6 8
3 7 45
3 8 79
3 9 39
4 4 0
4 5 6
4 6 73
4 7 15
4 8 23
4 9 68
5 5 0
5 6 79
5 7 81
5 8 26
5 9 25
6 6 0
6 7 21
6 8 47
6 9 17
7 7 0
7 8 82
7 9 29
8 8 0
8 9 70
9 9 0
